c This is COMiniSatPS.
c WARNING: for repeatability, setting FPU to use double precision
c ============================[ Problem Statistics ]=============================
c |                                                                             |
c |  Number of variables:       2989687                                         |
c |  Number of clauses:        37085132                                         |
c |  Parse time:                   6.40 s                                       |
c |                                                                             |
c ============================[ Search Statistics ]==============================
c | Conflicts |          ORIGINAL         |          LEARNT          | Progress |
c |           |    Vars  Clauses Literals |    Limit  Clauses Lit/Cl |          |
c ===============================================================================
c Switched to VSIDS.
c Switched to LRB.
c Switched to VSIDS.
c Switched to LRB.
c Switched to VSIDS.
c Switched to LRB.
c Switched to VSIDS.
c Switched to LRB.
c Switched to VSIDS.
c Switched to LRB.
c Switched to VSIDS.
c Switched to LRB.
c Switched to VSIDS.
c Switched to LRB.
c Switched to VSIDS.
c Switched to LRB.
c Switched to VSIDS.
c Switched to LRB.
c Switched to VSIDS.
c Switched to LRB.
c Switched to VSIDS.
c Switched to LRB.
c Switched to VSIDS.
c Switched to LRB.
c Switched to VSIDS.
c Switched to LRB.
c Switched to VSIDS.
c Switched to LRB.
c Switched to VSIDS.
c Switched to LRB.
c ===============================================================================
c restarts              : 518
c conflicts             : 65546          (27 /sec)
c decisions             : 294268289      (0.00 % random) (121288 /sec)
c propagations          : 7433841625     (3063985 /sec)
c conflict literals     : 105555643      (12.25 % deleted)
c Memory used           : 3192.00 MB
c CPU time              : 2426.2 s

s UNSATISFIABLE
